nNurses = 90;
nHours = 39;
minHours = 4;
maxHours = 15;
maxConsec = 11;
maxPresence = 10;
demand = [14, 10, 8, 9, 8, 13, 11, 6, 9, 14, 17, 17, 16, 16, 18, 15, 16, 18, 15, 10, 6, 7, 11, 12, 16, 21, 22, 20, 25, 23, 24, 26, 31, 34, 32, 34, 32, 35, 35];
